tp2.out
Problem:    tp2
Rows:       183
Columns:    48 (48 integer, 48 binary)
Non-zeros:  308
Status:     INTEGER OPTIMAL
Objective:  fun = 3 (MAXimum)

   No.   Row name        Activity     Lower bound   Upper bound
------ ------------    ------------- ------------- -------------
     1 fun                         3                             
     2 r_3[E1,1,1]                 0                           1 
     3 r_3[E1,1,2]                 1                           1 
     4 r_3[E1,2,1]                 0                           1 
     5 r_3[E1,2,2]                 1                           1 
     6 r_3[E2,1,1]                 0                           1 
     7 r_3[E2,1,2]                 0                           1 
     8 r_3[E2,2,1]                 0                           1 
     9 r_3[E2,2,2]                 1                           1 
    10 r_3[E3,1,1]                 0                           1 
    11 r_3[E3,1,2]                 0                           1 
    12 r_3[E3,2,1]                 1                           1 
    13 r_3[E3,2,2]                 0                           1 
    14 r_3[E4,1,1]                 0                           1 
    15 r_3[E4,1,2]                 0                           1 
    16 r_3[E4,2,1]                 0                           1 
    17 r_3[E4,2,2]                 1                           1 
    18 r_3[E5,1,1]                 0                           1 
    19 r_3[E5,1,2]                 0                           1 
    20 r_3[E5,2,1]                 0                           1 
    21 r_3[E5,2,2]                 1                           1 
    22 r_3[E6,1,1]                 0                           1 
    23 r_3[E6,1,2]                 0                           1 
    24 r_3[E6,2,1]                 0                           1 
    25 r_3[E6,2,2]                 1                           1 
    26 r_4[E1,1,1]                 0            -0             = 
    27 r_4[E1,1,2]                 0            -0             = 
    28 r_4[E1,2,1]                 0            -0             = 
    29 r_4[E1,2,2]                 0            -0             = 
    30 r_4[E2,1,1]                 0            -0             = 
    31 r_4[E2,1,2]                 0            -0             = 
    32 r_4[E2,2,1]                 0            -0             = 
    33 r_4[E2,2,2]                 0            -0             = 
    34 r_4[E3,1,1]                 0            -0             = 
    35 r_4[E3,1,2]                 0            -0             = 
    36 r_4[E3,2,1]                 0            -0             = 
    37 r_4[E3,2,2]                 0            -0             = 
    38 r_4[E4,1,1]                 0            -0             = 
    39 r_4[E4,1,2]                 0            -0             = 
    40 r_4[E4,2,1]                 0            -0             = 
    41 r_4[E4,2,2]                 0            -0             = 
    42 r_4[E5,1,1]                 0            -0             = 
    43 r_4[E5,1,2]                 0            -0             = 
    44 r_4[E5,2,1]                 0            -0             = 
    45 r_4[E5,2,2]                 0            -0             = 
    46 r_4[E6,1,1]                 0            -0             = 
    47 r_4[E6,1,2]                 0            -0             = 
    48 r_4[E6,2,1]                 0            -0             = 
    49 r_4[E6,2,2]                 0            -0             = 
    50 r_5[E1,1,1]                 0            -0             = 
    51 r_5[E1,1,2]                 0            -0             = 
    52 r_5[E1,2,1]                 0            -0             = 
    53 r_5[E1,2,2]                 0            -0             = 
    54 r_5[E2,1,1]                 0            -0             = 
    55 r_5[E2,1,2]                 0            -0             = 
    56 r_5[E2,2,1]                 0            -0             = 
    57 r_5[E2,2,2]                 0            -0             = 
    58 r_5[E3,1,1]                 0            -0             = 
    59 r_5[E3,1,2]                 0            -0             = 
    60 r_5[E3,2,1]                 0            -0             = 
    61 r_5[E3,2,2]                 0            -0             = 
    62 r_5[E4,1,1]                 0            -0             = 
    63 r_5[E4,1,2]                 0            -0             = 
    64 r_5[E4,2,1]                 0            -0             = 
    65 r_5[E4,2,2]                 0            -0             = 
    66 r_5[E5,1,1]                 0            -0             = 
    67 r_5[E5,1,2]                 0            -0             = 
    68 r_5[E5,2,1]                 0            -0             = 
    69 r_5[E5,2,2]                 0            -0             = 
    70 r_5[E6,1,1]                 0            -0             = 
    71 r_5[E6,1,2]                 0            -0             = 
    72 r_5[E6,2,1]                 0            -0             = 
    73 r_5[E6,2,2]                 0            -0             = 
    74 r_6[E1]                    12            12             = 
    75 r_6[E2]                     6             6             = 
    76 r_6[E3]                     6             6             = 
    77 r_6[E4]                     6             6             = 
    78 r_6[E5]                     6             6             = 
    79 r_6[E6]                     6             6             = 
    80 r_7[E1,1]                   6                          12 
    81 r_7[E1,2]                   6                          12 
    82 r_7[E2,1]                   0                          12 
    83 r_7[E2,2]                   6                          12 
    84 r_7[E3,1]                   0                           6 
    85 r_7[E3,2]                   6                           6 
    86 r_7[E4,1]                   0                           6 
    87 r_7[E4,2]                   6                           6 
    88 r_7[E5,1]                   0                           6 
    89 r_7[E5,2]                   6                           6 
    90 r_7[E6,1]                   0                           6 
    91 r_7[E6,2]                   6                           6 
    92 r_8[1,1,1]                  0            -0               
    93 r_8[1,1,2]                  0            -0               
    94 r_8[1,2,1]                  1             1               
    95 r_8[1,2,2]                  0            -0               
    96 r_8[2,1,1]                  1             1               
    97 r_8[2,1,2]                  0            -0               
    98 r_8[2,2,1]                  1             1               
    99 r_8[2,2,2]                  0            -0               
   100 r_9[1,1,1]                  0                           2 
   101 r_9[1,1,2]                  0                           3 
   102 r_9[1,2,1]                  1                           2 
   103 r_9[1,2,2]                  0                           3 
   104 r_9[2,1,1]                  1                           2 
   105 r_9[2,1,2]                  0                           3 
   106 r_9[2,2,1]                  1                           2 
   107 r_9[2,2,2]                  0                           3 
   108 r_10[E1,1,1]                0                           1 
   109 r_10[E1,1,2]                1                           1 
   110 r_10[E1,2,1]                0                           1 
   111 r_10[E1,2,2]                1                           1 
   112 r_10[E2,1,1]                0                           1 
   113 r_10[E2,1,2]                0                           1 
   114 r_10[E2,2,1]                0                           1 
   115 r_10[E2,2,2]                0                           1 
   116 r_10[E3,1,1]                0                           1 
   117 r_10[E3,1,2]                0                           1 
   118 r_10[E3,2,1]                1                           1 
   119 r_10[E3,2,2]                0                           1 
   120 r_10[E4,1,1]                0                           1 
   121 r_10[E4,1,2]                0                           1 
   122 r_10[E4,2,1]                0                           1 
   123 r_10[E4,2,2]                0                           1 
   124 r_10[E5,1,1]                0                           1 
   125 r_10[E5,1,2]                0                           1 
   126 r_10[E5,2,1]                0                           1 
   127 r_10[E5,2,2]                0                           1 
   128 r_10[E6,1,1]                0                           1 
   129 r_10[E6,1,2]                0                           1 
   130 r_10[E6,2,1]                0                           1 
   131 r_10[E6,2,2]                0                           1 
   132 r_11[E1,1,1]                0                           1 
   133 r_11[E1,1,2]                0                           1 
   134 r_11[E1,2,1]                0                           1 
   135 r_11[E1,2,2]                0                           1 
   136 r_11[E2,1,1]                0                           1 
   137 r_11[E2,1,2]                0                           1 
   138 r_11[E2,2,1]                0                           1 
   139 r_11[E2,2,2]                1                           1 
   140 r_11[E3,1,1]                0                           1 
   141 r_11[E3,1,2]                0                           1 
   142 r_11[E3,2,1]                0                           1 
   143 r_11[E3,2,2]                0                           1 
   144 r_11[E4,1,1]                0                           1 
   145 r_11[E4,1,2]                0                           1 
   146 r_11[E4,2,1]                0                           1 
   147 r_11[E4,2,2]                1                           1 
   148 r_11[E5,1,1]                0                           1 
   149 r_11[E5,1,2]                0                           1 
   150 r_11[E5,2,1]                0                           1 
   151 r_11[E5,2,2]                1                           1 
   152 r_11[E6,1,1]                0                           1 
   153 r_11[E6,1,2]                0                           1 
   154 r_11[E6,2,1]                0                           1 
   155 r_11[E6,2,2]                1                           1 
   156 r_12[E1,1,1]                0                           1 
   157 r_12[E1,1,2]                0                           1 
   158 r_12[E1,2,1]                0                           1 
   159 r_12[E1,2,2]                0                           1 
   160 r_12[E2,1,1]                0                           1 
   161 r_12[E2,1,2]                0                           1 
   162 r_12[E2,2,1]                0                           1 
   163 r_12[E2,2,2]                1                           1 
   164 r_12[E3,1,1]                0                           1 
   165 r_12[E3,1,2]                0                           1 
   166 r_12[E3,2,1]                0                           1 
   167 r_12[E3,2,2]                0                           1 
   168 r_12[E4,1,1]                0                           1 
   169 r_12[E4,1,2]                0                           1 
   170 r_12[E4,2,1]                0                           1 
   171 r_12[E4,2,2]                1                           1 
   172 r_12[E5,1,1]                0                           1 
   173 r_12[E5,1,2]                0                           1 
   174 r_12[E5,2,1]                0                           1 
   175 r_12[E5,2,2]                1                           1 
   176 r_12[E6,1,1]                0                           1 
   177 r_12[E6,1,2]                0                           1 
   178 r_12[E6,2,1]                0                           1 
   179 r_12[E6,2,2]                1                           1 
   180 r_13[E4,1,1]                0            -0             = 
   181 r_13[E4,1,2]                0            -0             = 
   182 r_13[E4,2,1]                0            -0             = 
   183 r_13[E4,2,2]                0            -0             = 

   No. Column name       Activity     Lower bound   Upper bound
------ ------------    ------------- ------------- -------------
     1 x[E1,1,1]    *              0             0             1 
     2 x[E1,1,2]    *              1             0             1 
     3 x[E1,2,1]    *              0             0             1 
     4 x[E1,2,2]    *              1             0             1 
     5 x[E2,1,1]    *              0             0             1 
     6 x[E2,1,2]    *              0             0             1 
     7 x[E2,2,1]    *              0             0             1 
     8 x[E2,2,2]    *              0             0             1 
     9 x[E3,1,1]    *              0             0             1 
    10 x[E3,1,2]    *              0             0             1 
    11 x[E3,2,1]    *              1             0             1 
    12 x[E3,2,2]    *              0             0             1 
    13 x[E4,1,1]    *              0             0             1 
    14 x[E4,1,2]    *              0             0             1 
    15 x[E4,2,1]    *              0             0             1 
    16 x[E4,2,2]    *              0             0             1 
    17 x[E5,1,1]    *              0             0             1 
    18 x[E5,1,2]    *              0             0             1 
    19 x[E5,2,1]    *              0             0             1 
    20 x[E5,2,2]    *              0             0             1 
    21 x[E6,1,1]    *              0             0             1 
    22 x[E6,1,2]    *              0             0             1 
    23 x[E6,2,1]    *              0             0             1 
    24 x[E6,2,2]    *              0             0             1 
    25 y[E1,1,1]    *              0             0             1 
    26 y[E1,1,2]    *              0             0             1 
    27 y[E1,2,1]    *              0             0             1 
    28 y[E1,2,2]    *              0             0             1 
    29 y[E2,1,1]    *              0             0             1 
    30 y[E2,1,2]    *              0             0             1 
    31 y[E2,2,1]    *              0             0             1 
    32 y[E2,2,2]    *              1             0             1 
    33 y[E3,1,1]    *              0             0             1 
    34 y[E3,1,2]    *              0             0             1 
    35 y[E3,2,1]    *              0             0             1 
    36 y[E3,2,2]    *              0             0             1 
    37 y[E4,1,1]    *              0             0             1 
    38 y[E4,1,2]    *              0             0             1 
    39 y[E4,2,1]    *              0             0             1 
    40 y[E4,2,2]    *              1             0             1 
    41 y[E5,1,1]    *              0             0             1 
    42 y[E5,1,2]    *              0             0             1 
    43 y[E5,2,1]    *              0             0             1 
    44 y[E5,2,2]    *              1             0             1 
    45 y[E6,1,1]    *              0             0             1 
    46 y[E6,1,2]    *              0             0             1 
    47 y[E6,2,1]    *              0             0             1 
    48 y[E6,2,2]    *              1             0             1 

Integer feasibility conditions:

KKT.PE: max.abs.err = 0.00e+00 on row 0
        max.rel.err = 0.00e+00 on row 0
        High quality

KKT.PB: max.abs.err = 0.00e+00 on row 0
        max.rel.err = 0.00e+00 on row 0
        High quality

End of output
